565 575
25 185
345 750
945 685
845 655
880 660
25 230
525 1000
580 1175
650 1130
1605 620
1220 580
1465 200
1530 5
845 680
725 370
145 665
415 635
510 875
560 365
300 465
520 585
480 415
835 625
975 580
1215 245
1320 315
1250 400
660 180
410 250
420 555
575 665
1150 1160
700 580
685 595
685 610
770 610
795 645
720 635
760 650
475 960
95 260
875 920
700 500
555 815
830 485
1170 65
830 610
605 625
595 360
1340 725
1740 245
1309 228
51 563
501 457
285 209
1385 1116
178 864
65 61
191 447
476 1034
1232 54
1149 407
1466 1116
859 451
919 569
1657 13
1554 326
1429 865
696 569
318 440
1563 689
209 189
778 198
735 704
1236 541
1652 88
1494 940
1098 255
775 161
1130 600
1698 740
1182 393
1442 142
93 466
1583 592
163 476
1774 206
778 569
928 747
333 758
727 429
1372 546
1437 146
1247 350
1093 501
334 946
777 552
1310 1140
449 664
-1
EOF